0 2
0 3
0 6
0 9
0 12
0 14
0 15
0 17
0 18
0 22
0 23
0 24
0 27
0 30
0 32
0 34
0 35
0 38
0 40
0 42
0 44
0 47
0 49
0 51
0 52
0 55
0 58
0 59
0 60
0 61
0 64
0 65
0 73
0 74
0 75
0 76
0 78
0 79
0 83
0 84
0 85
0 89
0 90
0 91
0 92
0 93
0 94
0 95
0 96
0 97
0 99
0 100
0 101
0 102
0 103
0 104
0 105
0 107
0 108
0 109
0 110
0 111
0 112
0 113
0 114
0 116
0 117
0 118
0 119
0 122
0 124
0 125
0 127
0 128
0 129
0 130
0 131
0 132
0 134
0 138
0 140
0 141
0 143
0 144
0 145
0 146
0 147
0 148
0 149
0 152
0 153
0 154
0 155
0 156
0 157
0 158
0 159
0 160
0 162
0 163
0 166
0 168
0 171
0 173
0 174
0 175
0 176
0 177
0 178
0 184
0 187
0 190
0 191
0 198
0 199
0 200
0 201
0 202
0 205
0 207
0 210
0 211
0 221
0 223
0 237
0 243
0 246
0 247
0 250
0 251
0 252
0 253
0 264
0 271
0 280
0 297
0 300
0 302
0 303
0 304
0 305
0 306
0 307
0 308
0 314
0 321
0 322
0 354
0 357
0 358
0 362
0 372
0 373
0 374
0 375
0 377
0 378
0 379
0 380
0 381
0 388
0 392
0 393
0 402
0 404
0 437
0 438
0 440
0 441
0 443
0 447
0 466
0 467
0 468
0 469
0 470
0 472
0 473
0 476
0 477
0 478
0 479
0 480
0 492
0 493
0 494
0 495
0 496
0 497
0 498
0 534
0 536
0 549
0 553
0 557
0 560
0 594
0 613
0 615
0 616
0 617
0 618
0 619
0 621
0 622
0 623
0 624
0 626
0 632
0 637
0 638
0 644
0 648
0 767
0 768
0 769
0 770
0 771
0 772
0 773
0 774
0 775
0 776
1 6
1 11
1 68
1 71
1 88
1 180
1 195
1 214
1 232
1 258
1 259
1 272
1 319
1 394
1 395
1 400
1 416
1 522
1 523
1 524
1 525
1 526
1 527
1 528
1 529
1 530
1 531
1 597
1 598
1 840
1 841
1 842
1 843
1 844
1 845
1 846
1 847
1 848
1 849
1 850
1 851
1 852
2 3
2 5
2 6
2 9
2 20
2 21
2 22
2 24
2 31
2 32
2 35
2 36
2 40
2 42
2 47
2 49
2 53
2 73
2 75
2 81
2 83
2 91
2 93
2 95
2 96
2 97
2 99
2 100
2 101
2 104
2 105
2 107
2 108
2 111
2 112
2 113
2 120
2 123
2 124
2 125
2 126
2 127
2 131
2 140
2 141
2 149
2 154
2 157
2 170
2 171
2 173
2 184
2 186
2 196
2 198
2 199
2 201
2 202
2 206
2 208
2 221
2 233
2 235
2 239
2 240
2 241
2 242
2 290
2 291
2 295
2 297
2 299
2 322
2 353
2 355
2 362
2 363
2 364
2 370
2 371
2 402
2 417
2 421
2 449
2 453
2 553
2 554
2 555
2 556
2 557
2 558
2 559
2 560
2 585
2 612
2 882
2 883
2 884
2 885
2 886
2 887
2 888
2 889
3 14
3 18
3 34
3 35
3 44
3 58
3 60
3 72
3 74
3 76
3 89
3 91
3 94
3 99
3 100
3 102
3 106
3 107
3 109
3 114
3 127
3 128
3 132
3 144
3 145
3 146
3 147
3 148
3 156
3 157
3 158
3 159
3 160
3 162
3 163
3 174
3 175
3 176
3 178
3 210
3 243
3 244
3 245
3 246
3 247
3 250
3 255
3 301
3 302
3 303
3 304
3 372
3 373
3 374
3 375
3 376
3 465
3 466
3 467
3 468
3 469
3 470
3 471
3 478
3 614
3 615
3 616
3 617
3 618
3 619
3 620
3 621
3 622
3 623
3 624
3 625
3 626
3 627
3 628
3 629
3 630
3 631
3 632
3 633
3 975
4 9
4 54
4 58
4 60
4 72
4 75
4 83
4 84
4 99
4 100
4 106
4 107
4 113
4 120
4 122
4 133
4 138
4 153
4 157
4 162
4 163
4 170
4 187
4 188
4 244
4 245
4 247
4 255
4 270
4 278
4 301
4 374
4 376
4 378
4 385
4 413
4 414
4 424
4 439
4 465
4 471
4 476
4 536
4 614
4 620
4 625
4 627
4 628
4 629
4 630
4 631
4 633
4 860
5 40
5 47
5 73
5 91
5 94
5 95
5 99
5 100
5 102
5 107
5 119
5 131
5 144
5 152
5 160
5 167
5 172
5 174
5 175
5 184
5 194
5 196
5 201
5 209
5 215
5 216
5 222
5 236
5 237
5 238
5 240
5 286
5 289
5 292
5 293
5 294
5 297
5 359
5 360
5 362
5 388
5 407
5 427
5 435
5 448
5 458
5 459
5 460
5 461
5 462
5 464
5 465
5 516
5 520
5 544
5 545
5 547
5 559
5 578
5 758
5 759
5 760
5 761
5 762
6 11
6 14
6 19
6 22
6 30
6 36
6 39
6 47
6 54
6 57
6 60
6 65
6 70
6 71
6 74
6 76
6 77
6 79
6 84
6 85
6 88
6 89
6 90
6 91
6 92
6 93
6 94
6 95
6 97
6 98
6 100
6 101
6 102
6 103
6 105
6 106
6 109
6 114
6 115
6 116
6 117
6 118
6 120
6 125
6 128
6 130
6 135
6 136
6 137
6 138
6 147
6 148
6 150
6 151
6 155
6 156
6 159
6 161
6 164
6 165
6 167
6 169
6 174
6 176
6 179
6 180
6 181
6 182
6 183
6 186
6 188
6 189
6 190
6 191
6 192
6 193
6 194
6 195
6 207
6 208
6 214
6 219
6 223
6 224
6 225
6 226
6 227
6 228
6 229
6 230
6 231
6 232
6 241
6 243
6 250
6 253
6 254
6 257
6 258
6 259
6 271
6 272
6 274
6 281
6 283
6 299
6 302
6 305
6 307
6 319
6 320
6 321
6 347
6 348
6 356
6 358
6 372
6 384
6 394
6 395
6 396
6 397
6 398
6 399
6 400
6 416
6 417
6 444
6 537
6 538
6 539
6 540
6 541
6 542
6 601
6 861
6 862
6 863
6 864
6 865
6 866
6 867
6 868
6 869
6 870
7 16
7 17
7 20
7 23
7 24
7 38
7 80
7 104
7 197
7 206
7 276
7 298
7 354
7 369
7 389
7 430
7 447
7 555
7 584
7 797
7 798
7 799
7 800
7 801
7 802
7 803
7 804
7 805
7 806
7 807
8 13
8 25
8 29
8 30
8 34
8 42
8 45
8 67
8 78
8 79
8 89
8 91
8 94
8 96
8 98
8 102
8 103
8 108
8 109
8 110
8 114
8 118
8 121
8 127
8 128
8 135
8 137
8 138
8 144
8 156
8 159
8 160
8 166
8 168
8 170
8 175
8 181
8 182
8 185
8 203
8 210
8 213
8 215
8 216
8 217
8 218
8 234
8 249
8 261
8 262
8 263
8 264
8 265
8 266
8 267
8 268
8 269
8 279
8 323
8 324
8 325
8 326
8 327
8 328
8 329
8 330
8 331
8 332
8 333
8 334
8 335
8 336
8 337
8 338
8 339
8 340
8 341
8 342
8 343
8 344
8 345
8 346
8 367
8 403
8 404
8 405
8 406
8 407
8 408
8 409
8 410
8 411
8 412
8 561
8 562
8 563
8 564
8 565
8 566
8 567
8 568
8 569
8 570
8 890
9 10
9 24
9 35
9 47
9 73
9 93
9 101
9 107
9 112
9 120
9 122
9 133
9 143
9 146
9 152
9 153
9 171
9 179
9 200
9 240
9 242
9 270
9 277
9 290
9 365
9 401
9 415
9 424
9 428
9 463
9 484
9 489
9 548
9 571
9 586
9 593
9 656
9 657
9 658
9 659
9 660
9 661
9 662
9 663
9 664
10 15
10 17
10 23
10 24
10 38
10 40
10 43
10 47
10 53
10 73
10 80
10 99
10 111
10 123
10 124
10 125
10 126
10 140
10 142
10 149
10 153
10 155
10 157
10 186
10 196
10 197
10 203
10 204
10 205
10 206
10 208
10 209
10 221
10 222
10 235
10 236
10 276
10 277
10 278
10 284
10 285
10 287
10 288
10 296
10 298
10 300
10 352
10 353
10 354
10 355
10 361
10 369
10 427
10 428
10 429
10 430
10 431
10 432
10 433
10 434
10 435
10 436
10 437
10 448
10 485
10 582
10 583
10 584
10 585
10 586
10 587
10 921
10 922
10 923
10 924
10 925
10 926
10 927
10 928
10 929
10 930
10 931
10 932
10 933
10 934
10 935
11 71
11 88
11 180
11 214
11 509
11 522
11 523
11 524
11 525
11 526
11 527
11 528
11 529
12 54
12 83
12 89
12 90
12 106
12 133
12 135
12 141
12 142
12 157
12 159
12 169
12 187
12 220
12 224
12 247
12 255
12 281
12 376
12 439
12 543
12 589
12 722
12 723
12 724
12 725
12 726
12 727
13 14
13 25
13 29
13 34
13 41
13 45
13 67
13 78
13 94
13 96
13 98
13 103
13 108
13 109
13 110
13 118
13 121
13 127
13 132
13 135
13 137
13 138
13 144
13 156
13 164
13 175
13 181
13 182
13 185
13 210
13 213
13 215
13 216
13 217
13 218
13 231
13 239
13 249
13 261
13 262
13 263
13 265
13 266
13 267
13 268
13 269
13 279
13 282
13 310
13 311
13 315
13 316
13 317
13 323
13 324
13 325
13 327
13 328
13 329
13 330
13 331
13 332
13 333
13 334
13 335
13 336
13 337
13 338
13 339
13 340
13 341
13 342
13 343
13 344
13 345
13 346
13 357
13 391
13 397
13 404
13 406
13 408
13 409
13 410
13 411
13 412
13 487
13 488
13 561
13 562
13 563
13 564
13 567
13 568
13 569
13 570
13 588
13 740
13 741
14 18
14 22
14 24
14 32
14 36
14 52
14 60
14 64
14 74
14 75
14 89
14 92
14 95
14 97
14 101
14 102
14 114
14 115
14 131
14 147
14 148
14 162
14 176
14 177
14 178
14 179
14 211
14 212
14 250
14 251
14 252
14 253
14 254
14 306
14 307
14 308
14 378
14 379
14 380
14 381
14 382
14 476
14 477
14 478
14 479
14 480
14 637
14 638
14 639
14 640
14 641
14 642
14 643
14 644
14 979
14 980
14 981
14 982
14 983
14 984
14 985
14 986
14 987
14 988
15 30
15 36
15 57
15 60
15 65
15 75
15 76
15 78
15 79
15 84
15 85
15 89
15 90
15 91
15 92
15 95
15 99
15 100
15 103
15 105
15 106
15 115
15 116
15 117
15 120
15 121
15 122
15 128
15 129
15 130
15 136
15 137
15 138
15 139
15 141
15 145
15 149
15 150
15 151
15 161
15 163
15 164
15 165
15 166
15 167
15 169
15 187
15 188
15 189
15 190
15 191
15 192
15 193
15 207
15 211
15 212
15 223
15 224
15 225
15 226
15 227
15 228
15 229
15 230
15 246
15 248
15 251
15 280
15 281
15 287
15 304
15 312
15 356
15 372
15 373
15 377
15 386
15 438
15 439
15 440
15 441
15 442
15 444
15 474
15 589
15 590
15 936
15 937
15 938
15 939
15 940
15 941
15 942
15 943
15 944
15 945
15 946
15 947
15 948
15 949
15 950
15 951
16 20
16 23
16 31
16 37
16 42
16 81
16 113
16 122
16 123
16 142
16 154
16 172
16 201
16 209
16 240
16 260
16 291
16 292
16 293
16 294
16 295
16 363
16 366
16 368
16 369
16 457
16 458
16 459
16 460
16 461
16 462
16 463
16 464
16 543
16 544
16 545
16 546
16 547
16 551
16 583
16 600
16 603
16 604
16 605
16 606
16 607
16 608
16 609
16 610
16 611
16 871
16 872
16 873
16 874
16 875
17 38
17 73
17 93
17 96
17 104
17 107
17 108
17 112
17 119
17 124
17 125
17 126
17 141
17 171
17 172
17 196
17 197
17 202
17 206
17 208
17 221
17 222
17 233
17 234
17 238
17 242
17 273
17 276
17 284
17 285
17 286
17 294
17 295
17 352
17 355
17 361
17 363
17 368
17 417
17 418
17 419
17 420
17 421
17 422
17 423
17 429
17 435
17 436
17 446
17 577
17 578
17 579
17 580
17 916
17 917
17 918
17 919
17 920
18 22
18 28
18 35
18 74
18 84
18 89
18 90
18 91
18 92
18 94
18 97
18 102
18 109
18 114
18 115
18 128
18 130
18 132
18 134
18 145
18 147
18 148
18 158
18 168
18 174
18 176
18 210
18 243
18 246
18 250
18 251
18 255
18 264
18 271
18 304
18 314
18 357
18 375
18 388
18 392
18 443
18 466
18 468
18 469
18 472
18 480
18 483
18 494
18 496
18 497
18 645
18 646
19 32
19 34
19 41
19 44
19 70
19 103
19 130
19 161
19 213
19 249
19 305
19 309
19 474
19 475
19 481
19 482
19 635
19 636
19 976
19 977
19 978
20 22
20 24
20 43
20 47
20 73
20 93
20 96
20 97
20 99
20 101
20 105
20 108
20 111
20 112
20 119
20 123
20 124
20 126
20 142
20 143
20 146
20 154
20 155
20 170
20 171
20 186
20 198
20 221
20 233
20 238
20 260
20 273
20 278
20 285
20 287
20 288
20 294
20 402
20 419
20 422
20 423
20 429
20 430
20 432
20 433
20 436
20 437
20 446
20 451
20 489
20 490
20 498
20 500
20 535
20 579
20 599
20 750
20 751
20 752
21 31
21 38
21 42
21 47
21 60
21 97
21 101
21 105
21 107
21 113
21 115
21 123
21 133
21 136
21 153
21 157
21 171
21 172
21 189
21 196
21 204
21 223
21 224
21 230
21 233
21 235
21 237
21 239
21 260
21 284
21 289
21 290
21 292
21 299
21 322
21 353
21 366
21 401
21 418
21 423
21 548
21 549
21 550
21 551
21 552
21 554
21 876
21 877
21 878
21 879
21 880
21 881
22 24
22 34
22 37
22 44
22 47
22 73
22 74
22 91
22 93
22 94
22 95
22 97
22 102
22 108
22 109
22 111
22 112
22 113
22 119
22 120
22 122
22 127
22 128
22 131
22 140
22 141
22 143
22 144
22 145
22 147
22 148
22 149
22 154
22 156
22 158
22 160
22 173
22 174
22 175
22 176
22 186
22 221
22 241
22 243
22 244
22 246
22 247
22 250
22 252
22 286
22 290
22 291
22 301
22 302
22 303
22 304
22 359
22 365
22 370
22 371
22 375
22 392
22 420
22 454
22 467
22 470
22 532
22 533
22 534
22 853
22 854
22 855
22 856
22 857
22 858
22 859
23 24
23 37
23 38
23 40
23 73
23 80
23 93
23 96
23 101
23 105
23 123
23 124
23 126
23 140
23 141
23 142
23 143
23 152
23 153
23 155
23 172
23 196
23 197
23 198
23 202
23 204
23 235
23 284
23 285
23 286
23 287
23 288
23 300
23 359
23 360
23 361
23 362
23 364
23 446
23 447
23 448
23 449
23 450
23 453
23 471
23 484
23 599
23 965
23 966
23 967
23 968
24 30
24 32
24 40
24 47
24 73
24 74
24 75
24 79
24 89
24 90
24 91
24 92
24 93
24 94
24 95
24 96
24 97
24 99
24 100
24 101
24 102
24 104
24 105
24 107
24 109
24 111
24 112
24 113
24 114
24 115
24 116
24 117
24 119
24 124
24 125
24 127
24 128
24 129
24 131
24 132
24 140
24 143
24 144
24 145
24 146
24 147
24 148
24 152
24 154
24 158
24 159
24 160
24 162
24 163
24 164
24 167
24 173
24 174
24 176
24 177
24 178
24 179
24 182
24 184
24 193
24 194
24 199
24 200
24 211
24 212
24 220
24 242
24 246
24 248
24 251
24 252
24 253
24 254
24 257
24 283
24 303
24 306
24 307
24 308
24 348
24 382
24 573
24 574
24 575
24 839
25 29
25 34
25 42
25 67
25 78
25 79
25 91
25 94
25 96
25 98
25 102
25 103
25 108
25 109
25 118
25 121
25 127
25 128
25 135
25 137
25 138
25 144
25 156
25 159
25 160
25 164
25 168
25 170
25 175
25 181
25 182
25 185
25 203
25 210
25 215
25 216
25 217
25 218
25 234
25 249
25 261
25 262
25 263
25 264
25 265
25 266
25 267
25 268
25 269
25 279
25 282
25 311
25 315
25 316
25 317
25 323
25 324
25 325
25 326
25 327
25 328
25 329
25 330
25 331
25 332
25 333
25 334
25 335
25 337
25 338
25 339
25 340
25 341
25 342
25 343
25 344
25 345
25 346
25 391
25 403
25 405
25 407
25 411
25 412
25 565
25 566
26 110
26 134
26 187
26 763
27 64
27 110
27 116
27 134
27 145
27 168
27 183
27 211
27 212
27 218
27 253
27 266
27 271
27 280
27 306
27 308
27 321
27 380
27 381
27 387
27 479
27 492
27 493
27 731
28 35
28 36
28 39
28 60
28 72
28 103
28 116
28 117
28 118
28 213
28 310
28 311
28 312
28 385
28 386
28 484
28 485
28 649
28 650
28 989
28 990
28 991
28 992
28 993
28 994
28 995
28 996
28 997
28 998
28 999
29 34
29 67
29 79
29 91
29 94
29 96
29 98
29 102
29 108
29 109
29 110
29 118
29 121
29 127
29 128
29 144
29 156
29 160
29 164
29 168
29 175
29 181
29 185
29 210
29 215
29 216
29 217
29 218
29 239
29 249
29 256
29 261
29 262
29 263
29 264
29 265
29 266
29 267
29 268
29 269
29 279
29 282
29 311
29 315
29 316
29 317
29 323
29 325
29 326
29 327
29 328
29 329
29 330
29 332
29 333
29 334
29 335
29 340
29 341
29 342
29 343
29 345
29 346
29 391
29 405
29 406
29 408
29 410
29 451
29 487
29 488
29 503
29 506
30 36
30 39
30 45
30 47
30 53
30 54
30 57
30 60
30 61
30 63
30 65
30 69
30 76
30 79
30 84
30 89
30 90
30 92
30 96
30 97
30 106
30 108
30 112
30 115
30 117
30 118
30 119
30 120
30 122
30 130
30 133
30 136
30 137
30 139
30 141
30 149
30 150
30 161
30 165
30 167
30 183
30 189
30 191
30 193
30 220
30 223
30 225
30 228
30 229
30 230
30 231
30 274
30 300
30 349
30 352
30 374
30 425
30 441
30 507
30 779
30 780
30 781
30 782
30 783
30 784
31 37
31 38
31 40
31 42
31 53
31 222
31 260
31 288
31 292
31 366
31 389
31 390
31 418
31 434
31 516
31 517
31 518
31 519
31 520
31 521
31 550
31 552
31 580
31 582
31 587
31 835
31 836
31 837
32 47
32 73
32 74
32 75
32 79
32 89
32 90
32 91
32 92
32 93
32 94
32 95
32 96
32 97
32 99
32 100
32 101
32 102
32 104
32 105
32 107
32 109
32 111
32 112
32 113
32 114
32 115
32 116
32 117
32 119
32 124
32 125
32 127
32 128
32 129
32 131
32 132
32 140
32 143
32 144
32 145
32 146
32 147
32 148
32 152
32 154
32 158
32 159
32 160
32 162
32 163
32 164
32 167
32 173
32 174
32 176
32 177
32 178
32 179
32 182
32 184
32 193
32 194
32 199
32 200
32 211
32 212
32 220
32 248
32 251
32 252
32 253
32 254
32 271
32 283
32 303
32 306
32 307
32 308
32 348
32 382
32 383
32 483
32 573
32 574
32 575
32 892
33 134
33 379
33 576
33 903
33 904
33 905
33 906
33 907
33 908
33 909
33 910
33 911
33 912
33 913
33 914
33 915
34 44
34 70
34 103
34 110
34 130
34 213
34 305
34 309
34 310
34 474
34 475
34 481
34 482
34 592
34 635
34 636
34 791
34 792
34 793
35 47
35 54
35 58
35 65
35 72
35 73
35 84
35 93
35 95
35 100
35 101
35 108
35 111
35 112
35 114
35 119
35 126
35 127
35 131
35 137
35 139
35 140
35 143
35 146
35 152
35 220
35 237
35 270
35 277
35 365
35 431
35 535
35 649
36 39
36 54
36 57
36 60
36 63
36 69
36 76
36 78
36 79
36 84
36 85
36 89
36 90
36 98
36 103
36 106
36 110
36 116
36 117
36 120
36 121
36 125
36 129
36 130
36 131
36 134
36 135
36 136
36 137
36 139
36 150
36 151
36 161
36 165
36 166
36 169
36 173
36 179
36 188
36 190
36 191
36 207
36 213
36 219
36 224
36 226
36 228
36 229
36 231
36 241
36 256
36 257
36 261
36 268
36 272
36 274
36 275
36 299
36 313
36 318
36 320
36 326
36 349
36 350
36 352
36 397
36 398
36 401
36 409
36 428
36 431
36 473
36 504
36 505
36 506
36 507
36 508
36 634
36 809
36 810
36 811
36 812
36 813
36 814
36 815
36 816
36 817
36 818
36 819
36 820
36 821
36 822
36 823
36 824
36 825
36 826
36 827
36 828
37 38
37 42
37 81
37 93
37 95
37 101
37 104
37 107
37 108
37 111
37 122
37 123
37 124
37 126
37 141
37 142
37 154
37 170
37 171
37 198
37 199
37 200
37 201
37 203
37 204
37 205
37 209
37 233
37 234
37 235
37 236
37 237
37 238
37 239
37 240
37 289
37 290
37 291
37 295
37 363
37 364
37 365
37 366
37 451
37 452
37 453
37 454
37 600
38 42
38 47
38 69
38 73
38 93
38 96
38 97
38 99
38 104
38 105
38 111
38 119
38 121
38 122
38 123
38 126
38 140
38 142
38 146
38 153
38 155
38 172
38 186
38 197
38 203
38 204
38 206
38 208
38 222
38 233
38 234
38 235
38 236
38 238
38 273
38 276
38 278
38 285
38 288
38 296
38 298
38 301
38 322
38 353
38 355
38 361
38 364
38 368
38 371
38 389
38 390
38 419
38 422
38 432
38 449
38 452
38 500
38 501
38 517
38 519
38 558
38 577
38 785
38 786
38 787
38 788
38 789
38 790
39 41
39 50
39 53
39 62
39 66
39 75
39 77
39 78
39 110
39 193
39 245
39 309
39 310
39 426
39 440
39 499
39 777
39 778
40 47
40 73
40 93
40 95
40 96
40 97
40 104
40 105
40 107
40 108
40 111
40 112
40 113
40 114
40 124
40 140
40 143
40 146
40 152
40 154
40 171
40 173
40 184
40 196
40 198
40 199
40 200
40 202
40 237
40 370
40 457
40 518
40 556
41 45
41 62
41 65
41 66
41 69
41 70
41 84
41 89
41 90
41 91
41 92
41 94
41 109
41 114
41 121
41 122
41 132
41 158
41 168
41 169
41 177
41 213
41 231
41 244
41 245
41 282
41 357
41 358
41 382
41 443
41 444
41 455
41 591
41 592
41 593
41 594
41 952
41 953
41 954
41 955
41 956
41 957
41 958
41 959
41 960
41 961
41 962
41 963
41 964
42 104
42 111
42 123
42 142
42 172
42 201
42 209
42 239
42 240
42 291
42 292
42 293
42 294
42 295
42 368
42 369
42 457
42 458
42 459
42 460
42 461
42 462
42 463
42 464
42 603
42 604
42 605
42 606
42 607
42 608
42 609
42 610
42 611
43 54
43 84
43 100
43 120
43 133
43 137
43 153
43 170
43 188
43 190
43 270
43 277
43 376
43 385
43 413
43 414
43 415
43 450
43 572
44 96
44 309
44 481
44 482
45 76
45 78
45 98
45 110
45 150
45 166
45 217
45 249
45 309
45 310
45 318
45 336
45 393
45 455
46 85
46 757
47 53
47 61
47 73
47 93
47 95
47 96
47 97
47 99
47 101
47 105
47 112
47 113
47 124
47 125
47 126
47 131
47 142
47 143
47 146
47 149
47 155
47 173
47 202
47 203
47 204
47 205
47 206
47 207
47 208
47 209
47 241
47 242
47 296
47 297
47 298
47 299
47 300
47 370
47 371
47 612
47 613
48 55
48 132
48 197
48 383
48 510
48 511
48 512
48 513
48 514
48 515
48 728
48 729
48 730
49 91
49 92
49 177
49 178
49 248
49 348
49 665
50 63
50 66
50 275
50 336
50 351
50 602
50 651
50 652
50 653
50 654
50 655
51 79
51 178
51 302
51 743
51 744
51 745
51 746
51 747
51 748
51 749
52 88
52 92
52 95
52 102
52 147
52 158
52 179
52 211
52 212
52 254
52 378
52 442
52 491
52 639
52 753
52 754
53 54
53 65
53 73
53 75
53 79
53 83
53 85
53 90
53 91
53 92
53 93
53 95
53 98
53 100
53 101
53 102
53 106
53 116
53 119
53 131
53 135
53 145
53 149
53 155
53 166
53 172
53 183
53 184
53 189
53 201
53 207
53 209
53 222
53 225
53 226
53 238
53 274
53 278
53 283
53 286
53 287
53 289
53 293
53 297
53 301
53 349
53 359
53 360
53 424
53 427
53 452
54 57
54 65
54 69
54 76
54 84
54 85
54 90
54 98
54 99
54 100
54 106
54 107
54 120
54 133
54 136
54 139
54 151
54 152
54 153
54 165
54 170
54 188
54 192
54 219
54 223
54 227
54 229
54 242
54 270
54 277
54 347
54 385
54 413
54 414
54 415
54 450
54 571
54 572
54 891
55 510
55 511
55 512
55 513
55 514
55 515
56 88
56 180
56 195
56 214
56 232
56 258
56 259
56 319
56 394
56 395
56 396
56 400
56 530
56 538
56 755
56 756
57 58
57 60
57 65
57 69
57 75
57 76
57 84
57 85
57 90
57 101
57 103
57 106
57 116
57 117
57 118
57 120
57 121
57 125
57 129
57 130
57 133
57 134
57 135
57 136
57 137
57 138
57 150
57 151
57 165
57 166
57 181
57 183
57 186
57 188
57 189
57 190
57 191
57 192
57 207
57 219
57 225
57 226
57 227
57 228
57 229
57 241
57 256
57 263
57 312
57 313
57 373
57 377
57 387
57 442
57 486
57 521
57 590
57 732
57 733
57 734
57 735
57 736
57 737
57 738
57 739
58 59
58 89
58 92
58 129
58 132
58 177
58 178
58 248
58 377
58 472
58 473
58 634
59 60
59 71
59 88
59 99
59 100
59 106
59 107
59 157
59 162
59 163
59 180
59 214
59 244
59 245
59 247
59 258
59 259
59 319
59 396
60 64
60 65
60 76
60 89
60 90
60 91
60 125
60 129
60 130
60 139
60 151
60 162
60 191
60 257
60 349
60 477
60 504
60 742
61 74
61 89
61 90
61 94
61 100
61 106
61 117
61 118
61 133
61 148
61 158
61 161
61 183
61 280
61 318
61 321
61 356
61 541
61 765
61 766
62 63
62 78
62 79
62 98
62 136
62 156
62 169
62 185
62 275
62 296
62 313
62 350
62 351
62 367
62 425
62 426
62 445
62 491
62 581
62 595
62 596
62 669
63 66
63 69
63 78
63 103
63 274
63 316
63 386
63 499
63 502
63 666
63 667
63 668
64 162
64 252
64 379
64 380
64 381
64 640
64 641
64 642
64 643
64 721
65 79
65 89
65 90
65 110
65 115
65 117
65 118
65 136
65 145
65 150
65 161
65 165
65 179
65 181
65 192
65 224
65 225
65 228
65 231
65 244
65 245
65 296
65 312
65 315
65 320
65 356
65 387
65 399
65 420
65 456
65 532
65 591
66 367
66 455
66 456
66 602
66 972
66 973
66 974
67 78
67 94
67 98
67 103
67 118
67 121
67 138
67 159
67 182
67 215
67 216
67 217
67 218
67 262
67 265
67 267
67 269
67 317
67 324
67 331
67 337
67 338
67 339
67 344
67 403
68 69
68 75
68 79
68 88
68 89
68 115
68 116
68 129
68 134
68 187
68 220
68 227
68 255
68 272
68 416
68 893
68 894
68 895
68 896
68 897
68 898
68 899
68 900
68 901
68 902
69 76
69 85
69 90
69 103
69 104
69 106
69 133
69 134
69 135
69 150
69 151
69 155
69 165
69 192
69 197
69 203
69 204
69 205
69 219
69 226
69 230
69 234
69 236
69 256
69 257
69 273
69 281
69 298
69 312
69 314
69 318
69 320
69 351
69 386
69 390
69 393
69 398
69 434
69 438
69 456
69 485
69 486
69 490
69 495
69 501
69 505
69 508
69 533
69 537
69 539
69 540
69 576
69 670
69 671
69 672
69 673
69 674
69 675
69 676
69 677
69 678
69 679
69 680
69 681
69 682
69 683
69 684
69 685
69 686
69 687
69 688
69 689
69 690
69 691
69 692
69 693
69 694
69 695
69 696
69 697
69 698
69 699
69 700
69 701
69 702
69 703
69 704
69 705
69 706
69 707
69 708
69 709
69 710
69 711
69 712
69 713
69 714
69 715
69 716
69 717
69 718
69 719
69 720
70 185
70 282
70 305
70 358
70 475
70 502
70 503
70 650
70 794
70 795
70 796
71 180
71 214
71 258
71 259
72 83
72 163
72 384
72 647
72 648
73 99
73 105
73 123
73 126
73 142
73 198
73 208
73 236
73 284
73 433
73 838
74 91
74 92
74 97
74 109
74 132
74 147
74 148
74 255
74 383
74 483
74 645
74 646
75 76
75 79
75 84
75 89
75 90
75 91
75 92
75 94
75 95
75 114
75 115
75 116
75 117
75 121
75 129
75 134
75 135
75 151
75 169
75 177
75 187
75 190
75 227
75 256
75 350
76 79
76 85
76 89
76 90
76 92
76 98
76 103
76 106
76 115
76 132
76 138
76 139
76 150
76 151
76 164
76 169
76 183
76 192
76 194
76 219
76 230
76 243
76 248
76 280
76 281
76 314
76 347
77 180
77 531
77 542
78 136
78 185
78 275
78 350
78 351
78 367
78 425
78 426
78 445
78 581
79 98
79 104
79 113
79 122
79 139
79 149
80 113
80 202
80 293
80 360
80 421
81 85
81 546
82 601
82 969
82 970
82 971
83 163
83 384
83 647
84 98
84 157
84 161
84 194
84 275
84 808
85 139
85 347
85 399
85 829
85 830
85 831
85 832
85 833
85 834
86 104
86 189
86 199
86 205
86 273
86 289
86 384
87 272
87 509
87 764
88 195
88 232
